
Welcome to IBM(R) ILOG(R) CPLEX(R) Interactive Optimizer 22.1.1.0
  with Simplex, Mixed Integer & Barrier Optimizers
5725-A06 5725-A29 5724-Y48 5724-Y49 5724-Y54 5724-Y55 5655-Y21
Copyright IBM Corp. 1988, 2022.  All Rights Reserved.

Type 'help' for a list of available commands.
Type 'help' followed by a command name for more
information on commands.

CPLEX> Selected objective sense:  MINIMIZE
Selected objective  name:  00000000
Selected RHS        name:  RHS1
Selected bound      name:  BOUND
Problem 'ee.mps' read.
Read time = 0.03 sec. (3.17 ticks)
CPLEX> New value for time limit in seconds: 7200
CPLEX> New value for parallel optimization mode: -1
CPLEX> New value for default parallel thread count: 40
CPLEX> New value for mixed integer optimality gap tolerance: 1e-13
CPLEX> Version identifier: 22.1.1.0 | 2022-11-28 | 9160aff4d
CPXPARAM_Threads                                 40
CPXPARAM_Parallel                                -1
CPXPARAM_TimeLimit                               7200
CPXPARAM_MIP_Tolerances_MIPGap                   1e-13
Found incumbent of value 0.000000 after 0.00 sec. (0.31 ticks)
Tried aggregator 2 times.
MIP Presolve eliminated 183 rows and 2745 columns.
MIP Presolve modified 6090 coefficients.
Aggregator did 713 substitutions.
Reduced MIP has 3636 rows, 7840 columns, and 28954 nonzeros.
Reduced MIP has 7840 binaries, 0 generals, 0 SOSs, and 0 indicators.
Presolve time = 0.07 sec. (69.12 ticks)
Probing time = 0.03 sec. (5.33 ticks)
Tried aggregator 1 time.
Detecting symmetries...
Reduced MIP has 3636 rows, 7840 columns, and 28954 nonzeros.
Reduced MIP has 7840 binaries, 0 generals, 0 SOSs, and 0 indicators.
Presolve time = 0.02 sec. (22.09 ticks)
Probing time = 0.02 sec. (5.12 ticks)
Clique table members: 18788.
MIP emphasis: balance optimality and feasibility.
MIP search method: dynamic search.
Parallel mode: opportunistic, using up to 40 threads.
Root relaxation solution time = 0.09 sec. (70.70 ticks)

        Nodes                                         Cuts/
   Node  Left     Objective  IInf  Best Integer    Best Bound    ItCnt     Gap

*     0+    0                            0.0000  -1.54000e+13              --- 
*     0+    0                      -7.20000e+12  -1.54000e+13           113.89%
      0     0  -1.53900e+13    94  -7.20000e+12  -1.53900e+13     1790  113.75%
*     0+    0                      -1.53900e+13  -1.53900e+13             0.00%
      0     0  -1.53900e+13   176  -1.53900e+13      Cuts: 86     2253    0.00%
      0     0  -1.53900e+13   274  -1.53900e+13     Cuts: 119     2843    0.00%
*     0+    0                      -1.53900e+13  -1.53900e+13             0.00%
*     0+    0                      -1.53900e+13  -1.53900e+13             0.00%
*     0+    0                      -1.53900e+13  -1.53900e+13             0.00%
*     0+    0                      -1.53900e+13  -1.53900e+13             0.00%

Repeating presolve.
Tried aggregator 2 times.
MIP Presolve eliminated 897 rows and 2693 columns.
MIP Presolve added 104 rows and 0 columns.
MIP Presolve modified 367 coefficients.
Aggregator did 306 substitutions.
Reduced MIP has 2537 rows, 4824 columns, and 17487 nonzeros.
Reduced MIP has 4824 binaries, 0 generals, 0 SOSs, and 0 indicators.
Presolve time = 0.07 sec. (75.46 ticks)
Probing fixed 86 vars, tightened 0 bounds.
Probing time = 0.05 sec. (19.91 ticks)
Tried aggregator 2 times.
MIP Presolve eliminated 57 rows and 122 columns.
MIP Presolve added 4 rows and 0 columns.
MIP Presolve modified 4 coefficients.
Aggregator did 26 substitutions.
Reduced MIP has 2458 rows, 4669 columns, and 16937 nonzeros.
Reduced MIP has 4669 binaries, 0 generals, 0 SOSs, and 0 indicators.
Presolve time = 0.03 sec. (26.91 ticks)
Probing time = 0.03 sec. (8.16 ticks)
Tried aggregator 2 times.
Detecting symmetries...
MIP Presolve eliminated 4 rows and 3 columns.
MIP Presolve modified 1 coefficients.
Aggregator did 2 substitutions.
Reduced MIP has 2452 rows, 4664 columns, and 16918 nonzeros.
Reduced MIP has 4664 binaries, 0 generals, 0 SOSs, and 0 indicators.
Presolve time = 0.03 sec. (24.00 ticks)
Represolve time = 0.25 sec. (182.91 ticks)
Probing time = 0.03 sec. (6.03 ticks)
Clique table members: 11025.
MIP emphasis: balance optimality and feasibility.
MIP search method: dynamic search.
Parallel mode: opportunistic, using up to 40 threads.
Root relaxation solution time = 0.20 sec. (111.82 ticks)

        Nodes                                         Cuts/
   Node  Left     Objective  IInf  Best Integer    Best Bound    ItCnt     Gap

*     0+    0                      -1.53900e+13  -1.53900e+13             0.00%
      0     0  -1.53900e+13   194  -1.53900e+13  -1.53900e+13     5181    0.00%
*     0+    0                      -1.53900e+13  -1.53900e+13             0.00%
      0     0  -1.53900e+13   289  -1.53900e+13     Cuts: 145     5523    0.00%
      0     0  -1.53900e+13   200  -1.53900e+13     Cuts: 128     5811    0.00%
      0     0  -1.53900e+13   333  -1.53900e+13      Cuts: 51     5969    0.00%
      0     2  -1.53900e+13   317  -1.53900e+13  -1.53900e+13     5969    0.00%
Elapsed time = 3.18 sec. (1958.58 ticks, tree = 0.02 MB, solutions = 8)
    342    63  -1.53900e+13   119  -1.53900e+13  -1.53900e+13    18848    0.00%
    825   214        cutoff        -1.53900e+13  -1.53900e+13    86524    0.00%
   1221   212    infeasible        -1.53900e+13  -1.53900e+13    87212    0.00%
   1698   224        cutoff        -1.53900e+13  -1.53900e+13   173584    0.00%
   2628    88    infeasible        -1.53900e+13  -1.53900e+13   227048    0.00%
   4288    67  -1.53900e+13   103  -1.53900e+13  -1.53900e+13   274530    0.00%
   6603    71    infeasible        -1.53900e+13  -1.53900e+13   287720    0.00%
   9262    95        cutoff        -1.53900e+13  -1.53900e+13   341097    0.00%
  11312   132  -1.53900e+13    86  -1.53900e+13  -1.53900e+13   351776    0.00%
  16334   719  -1.53900e+13   170  -1.53900e+13  -1.53900e+13   600378    0.00%
Elapsed time = 7.51 sec. (5059.38 ticks, tree = 1.38 MB, solutions = 8)

Performing restart 1

Repeating presolve.
Tried aggregator 2 times.
MIP Presolve eliminated 329 rows and 597 columns.
MIP Presolve added 64 rows and 0 columns.
MIP Presolve modified 1566 coefficients.
Aggregator did 214 substitutions.
Reduced MIP has 1938 rows, 3837 columns, and 13704 nonzeros.
Reduced MIP has 3837 binaries, 0 generals, 0 SOSs, and 0 indicators.
Presolve time = 0.06 sec. (38.44 ticks)
Tried aggregator 2 times.
MIP Presolve eliminated 10 rows and 24 columns.
MIP Presolve modified 2 coefficients.
Aggregator did 3 substitutions.
Reduced MIP has 1925 rows, 3806 columns, and 13588 nonzeros.
Reduced MIP has 3806 binaries, 0 generals, 0 SOSs, and 0 indicators.
Presolve time = 0.04 sec. (25.14 ticks)
Represolve time = 0.18 sec. (96.96 ticks)
  16553     0  -1.53900e+13   254  -1.53900e+13  ZeroHalf: 18   755337    0.00%
  16553     0  -1.53900e+13   303  -1.53900e+13      Cuts: 12   755444    0.00%
  16553     0  -1.53900e+13   289  -1.53900e+13      Cuts: 22   755539    0.00%
  16553     0  -1.53900e+13   300  -1.53900e+13      Cuts: 16   755658    0.00%
  16553     0  -1.53900e+13   303  -1.53900e+13      Cuts: 30   755813    0.00%
  16553     7        cutoff        -1.53900e+13  -1.53900e+13   757646    0.00%
  16657     5  -1.53900e+13   149  -1.53900e+13  -1.53900e+13   759878    0.00%

GUB cover cuts applied:  5
Clique cuts applied:  21
Cover cuts applied:  188
Mixed integer rounding cuts applied:  19
Zero-half cuts applied:  16
Lift and project cuts applied:  10
Gomory fractional cuts applied:  8

Root node processing (before b&c):
  Real time             =    2.47 sec. (1946.03 ticks)
Parallel b&c, 40 threads:
  Real time             =    8.51 sec. (5513.11 ticks)
  Sync time (average)   =    1.88 sec.
  Wait time (average)   =    0.14 sec.
                          ------------
Total (root+branch&cut) =   10.97 sec. (7459.14 ticks)

Solution pool: 8 solutions saved.

MIP - Integer optimal solution:  Objective = -1.5389998889e+13
Solution time =   11.06 sec.  Iterations = 760851  Nodes = 16666
Deterministic time = 7459.17 ticks  (674.33 ticks/sec)

CPLEX> Solution 'p9' written to file 'ee.sol'.
CPLEX> 